720.09 420.44 
638.03 221.73 
569.19 245.11 
313.35 76.28 
192.57 195.76 
173.09 291.86 
652.31 158.1 
486.08 354.2 
469.19 167.19 
288.68 393.16 
335.43 150.31 
418.55 312.64 
499.06 203.55 
704.26 193.16 
643.22 302.25 
591.27 191.86 
508.16 306.15 
209.45 255.5 
157.51 197.06 
101.66 168.49 
275.69 356.8 
270.49 568.49 
528.94 561.99 
540.62 190.56 
792.57 172.38 
693.87 415.24 
631.53 558.1 
343.22 125.63 
251.01 42.51 
456.21 76.28 
